&inputph
outdir = './tmp/',
prefix = 'GaAs',
fildyn = 'GaAs.dynmat_G',
tr2_ph = 1.0d-14,
amass(1) = 69.723,
amass(2) = 74.921595,
epsil=.true.
/
0.0 0.0 0.0
