&bands
    outdir = './work/' ,
    prefix='Cu' ,
    filband='Cu.band' ,
    lsym=.true.
 /
