&control
    calculation='scf' ,
    prefix='Cu' ,
    outdir = './work/' ,
    pseudo_dir = './' 
/
&system
    ibrav = 2 ,
    A = 3.621262 ,
    nat =  1 ,
    ntyp = 1 ,
    ecutwfc = 45.0 ,
    ecutrho = 236.0 ,
    occupations = 'smearing' ,
    degauss = 0.05 , 
    smearing = 'gaussian' ,
/
&electrons
    mixing_beta = 0.7 ,
    conv_thr = 1.0d-8 ,
/
ATOMIC_SPECIES
Cu   63.546   Cu.pbe-dn-kjpaw_psl.1.0.0.UPF
ATOMIC_POSITIONS {angstrom}
Cu     0.000000   0.000000   0.000000 0 0 0
K_POINTS {automatic}
 32 32 32 1 1 1
