&control
calculation = 'bands'
prefix = 'GaAs'
pseudo_dir = './'
wf_collect = .true.
/
&system
ibrav = 2
celldm(1) = 10.6867
nat = 2
ntyp = 2
ecutwfc = 60
ecutrho = 244
nbnd = 16
/
&electrons
mixing_mode = 'plain'
mixing_beta = 0.7
conv_thr = 1.0d-8
/
ATOMIC_SPECIES
Ga 69.723 Ga.pbe-dn-kjpaw_psl.1.0.0.UPF
As 74.921595 As.pbe-n-kjpaw_psl.1.0.0.UPF
ATOMIC_POSITIONS
Ga 0.00 0.00 0.00
As 0.25 0.25 0.25
K_POINTS {tpiba_b}
5
 0.00  0.25  0.75  20 !L
 0.00  0.00  0.00  30 !G
-0.50  0.00  0.50  10 !X
-0.375 0.00 -0.675 30 !K,U
 0.00  0.00  1.00  20 !G


