&bands
   outdir = './',
   prefix='WSe2',
   filband='WSe2.band',
   lsym=.true.
/

