#************************************************************************************
#*                  Generated by cif2cell 1.2.10 2020-05-13 22:59                   *
#*  T. Bjorkman, Comp. Phys. Commun. 182, 1183-1186 (2011). Please cite generously. *
#*                                                                                  *
#*                                    WSe2   ()                                     *
#*             Failed to get author information, No journal information             *
#************************************************************************************

&control
calculation = 'scf'
prefix = 'WSe2'
pseudo_dir = './'
wf_collect = .true.
/
&SYSTEM
  ibrav = 0
  A =    3.32561
  nat = 3
  ntyp = 2
  ecutwfc = 50
  ecutrho = 400
/
&electrons
  mixing_mode = 'plain'
  mixing_beta = 0.7
  conv_thr = 1.0d-8
/
CELL_PARAMETERS {alat}
  1.000000000000000   0.000000000000000   0.000000000000000 
 -0.500000000000000   0.866025403784439   0.000000000000000 
  0.000000000000000   0.000000000000000   5.270333379074286 
ATOMIC_SPECIES
  Se   78.96000   Se.pbe-dn-kjpaw_psl.1.0.0.UPF
   W  183.84000   W.pbe-spn-kjpaw_psl.1.0.0.UPF
ATOMIC_POSITIONS {crystal}
 W   0.000000000000000   0.000000000000000   0.000000000000000 
Se   0.333333333333333   0.666666666666667   0.095876000000000 
Se   0.333333333333333   0.666666666666667   0.904124000000000 
K_POINTS {automatic}
6 6 1 0 0 0
