&control
    calculation='bands' ,
    prefix='Ca' ,
    outdir = './work/' ,
    pseudo_dir = './' 
/
&system
    ibrav = 2 ,
    A = 5.50737 ,
    nat =  1 ,
    ntyp = 1 ,
    nbnd = 30 ,
    ecutwfc = 45.0 ,
    ecutrho = 280.0 ,
    occupations = 'smearing' ,
    degauss = 0.05 , 
    smearing = 'gaussian' ,
/
&electrons
    conv_thr = 1.0d-8 ,
/
ATOMIC_SPECIES
Ca   40.078   Ca.pbe-spn-kjpaw_psl.1.0.0.UPF
ATOMIC_POSITIONS {angstrom}
Ca     0.000000   0.000000   0.000000 0 0 0
K_POINTS {tpiba_b}
6
 0.00  0.00  0.00  40 !G
 0.00  1.00  0.00  20 !X
 0.50  1.00  0.00  30 !W
 0.50  0.50  0.50  30 !L
 0.00  0.00  0.00  50 !G
 1.00  0.00  1.00  40 !X




