&control
    calculation='scf' ,
    prefix='Ca' ,
    outdir = './work/' ,
    pseudo_dir = './' 
/
&system
    ibrav = 2 ,
    A = 5.50737 ,
    nat =  1 ,
    ntyp = 1 ,
    ecutwfc = 45.0 ,
    ecutrho = 280.0 ,
    occupations = 'smearing' ,
    degauss = 0.05 , 
    smearing = 'gaussian' ,
/
&electrons
    mixing_beta = 0.7 ,
    conv_thr = 1.0d-8 ,
/
ATOMIC_SPECIES
Ca   40.078   Ca.pbe-spn-kjpaw_psl.1.0.0.UPF
ATOMIC_POSITIONS {angstrom}
Ca     0.000000   0.000000   0.000000 0 0 0
K_POINTS {automatic}
 8 8 8 0 0 0
