&bands
    outdir = './work/' ,
    prefix='Ca' ,
    filband='Ca.band' ,
    lsym=.true.
 /
