&input
 fildyn='Si.dynmat',
 zasr='simple'
 flfrc='Si444.fc'
/
