&control
    calculation = 'scf'
    prefix = 'Si'
    tstress = .true.
    tprnfor = .true.
    pseudo_dir = './'
/
&system
    ibrav = 2
    nat = 2
    ntyp = 1
    celldm(1) = 10.3463
    ecutwfc = 20.0
    ecutrho = 80.0
    nbnd = 8
    occupations='fixed'
/
&electrons
    mixing_mode = 'plain'
    mixing_beta = 0.7
    conv_thr =  1.0d-8
/

ATOMIC_SPECIES
Si     28.086  Si.pbe-rrkj.UPF

ATOMIC_POSITIONS {crystal}
Si 0.00000 0.00000 0.00000
Si 0.25000 0.25000 0.25000

K_POINTS {automatic}
 6 6 6 1 1 1
